NAME : portgen-41-957
COMMENT : portgen N=41, seed=957
TYPE : TSP
DIMENSION : 41
EDGE_WEIGHT_TYPE : EUC_2D
NODE_COORD_SECTION
1 955655 831475
2 435032 994020
3 185905 376184
4 86773 834863
5 881270 990303
6 868821 823347
7 733355 21775
8 313085 78819
9 90432 493246
10 473147 21616
11 646708 529463
12 786435 400618
13 705661 556294
14 318422 195094
15 57759 711391
16 960414 523455
17 150124 657203
18 246907 356431
19 918272 564253
20 832362 905600
21 812442 592531
22 854471 930912
23 235171 368261
24 616996 169709
25 30418 464570
26 329280 837994
27 975726 598466
28 389931 432199
29 681350 777828
30 747112 829474
31 457911 522519
32 2501 975670
33 177861 276290
34 968876 802443
35 786604 944823
36 461822 920722
37 462828 8577
38 692336 808713
39 553736 187969
40 10687 273461
41 874943 540593
